qe/outputs/qe/qe_queries/T=5,eliminate=[I_0,I_1,I_2,I_3,I_4,C,B,lhs=Q_4].smt2
; benchmark generated from python API
(set-info :status unknown)
(declare-fun S_1 () Real)
(declare-fun S_2 () Real)
(declare-fun S_3 () Real)
(declare-fun S_4 () Real)
(declare-fun A_0 () Real)
(declare-fun L_0 () Real)
(declare-fun S_0 () Real)
(declare-fun A_3 () Real)
(declare-fun L_3 () Real)
(declare-fun A_1 () Real)
(declare-fun L_1 () Real)
(declare-fun L_2 () Real)
(declare-fun A_2 () Real)
(declare-fun L_4 () Real)
(declare-fun A_4 () Real)
(declare-fun Q_4 () Real)
(assert
 (let (($x1374 (>= Q_4 0.0)))
 (let ((?x718 (* (- 1.0) L_0)))
 (let ((?x727 (* (- 1.0) L_1)))
 (let (($x77430 (= ?x727 ?x718)))
 (let ((?x1706 (* 2.0 A_3)))
 (let ((?x1325 (* 2.0 L_1)))
 (let ((?x1705 (* (- 2.0) L_3)))
 (let ((?x1324 (* 2.0 S_0)))
 (let ((?x5906 (* (- 3.0) S_3)))
 (let ((?x755 (* (- 1.0) A_0)))
 (let (($x47823 (<= (+ ?x755 ?x718 ?x5906 ?x1324 ?x1705 ?x1325 ?x1706) 0.0)))
 (let (($x22461 (<= (+ A_1 (* (- 2.0) S_3) S_0 (* (- 1.0) L_3) ?x755 A_3) 0.0)))
 (let ((?x954 (* (- 1.0) A_3)))
 (let ((?x736 (* (- 1.0) L_2)))
 (let (($x1732 (<= (+ A_2 ?x736 ?x755 L_0 L_3 ?x727 A_1 ?x954) 0.0)))
 (let (($x1675 (not $x1732)))
 (let (($x1655 (<= (+ A_2 ?x736 (* (- 1.0) S_3)) 0.0)))
 (let ((?x745 (* (- 1.0) L_3)))
 (let (($x77457 (= ?x745 ?x736)))
 (let ((?x2010 (* (- 1.0) S_1)))
 (let ((?x5940 (* (/ 3.0 2.0) S_2)))
 (let ((?x5960 (* (/ 1.0 2.0) L_0)))
 (let ((?x5928 (* (/ 1.0 2.0) A_0)))
 (let (($x2728 (<= (+ ?x727 S_2 ?x2010 L_2 A_0 (* (- 1.0) A_2)) 0.0)))
 (let (($x20856 (<= (+ (* (- 1.0) A_1) (* 2.0 S_2) ?x2010 L_3 A_0 ?x954) 0.0)))
 (let (($x77337 (= ?x736 ?x727)))
 (let ((?x905 (* (- 1.0) A_2)))
 (let ((?x1682 (* 2.0 A_0)))
 (let ((?x3397 (* (- 2.0) L_4)))
 (let ((?x1697 (* (- 2.0) A_3)))
 (let ((?x1696 (* 2.0 L_3)))
 (let ((?x1949 (* 2.0 A_4)))
 (let ((?x3398 (* (- 2.0) Q_4)))
 (let (($x41742 (<= (+ ?x3398 ?x1949 ?x1696 ?x1697 ?x3397 ?x1682 ?x718 ?x2010 L_2 ?x727 ?x905) 0.0)))
 (let ((?x1314 (* (- 2.0) L_1)))
 (let ((?x678 (* (- 1.0) L_4)))
 (let ((?x685 (* (- 1.0) Q_4)))
 (let (($x14568 (<= (+ ?x685 A_4 L_3 ?x954 ?x678 ?x1314 A_1 ?x2010 L_2 A_0 ?x905) 0.0)))
 (let (($x3363 (<= (+ ?x685 ?x727 ?x2010 A_0) 0.0)))
 (let ((?x1316 (* (- 2.0) A_2)))
 (let ((?x1778 (* 2.0 A_1)))
 (let ((?x1315 (* 2.0 L_2)))
 (let ((?x4133 (* (/ 2.0 3.0) S_3)))
 (let (($x4331 (<= (+ (* (- (/ 2.0 3.0)) A_0) (* (/ 2.0 3.0) L_0) ?x4133 ?x1315 ?x1314 ?x1778 ?x1316) 0.0)))
 (let ((?x1344 (* (- 4.0) A_2)))
 (let ((?x1343 (* 4.0 A_1)))
 (let ((?x1342 (* 4.0 L_2)))
 (let ((?x1359 (* (- 4.0) L_1)))
 (let (($x1361 (<= (+ ?x685 A_4 ?x755 ?x678 L_0 ?x1359 ?x1342 ?x1343 ?x1344) 0.0)))
 (let ((?x63526 (+ (* (- (/ 2.0 3.0)) S_4) (* (- (/ 4.0 3.0)) A_0) (* (/ 1.0 3.0) L_0) S_0 L_1 ?x736 A_2)))
 (let ((?x1740 (* 3.0 A_2)))
 (let ((?x5996 (* (- 3.0) A_1)))
 (let ((?x1741 (* (- 3.0) L_2)))
 (let ((?x2968 (* 3.0 L_1)))
 (let ((?x1511 (* (- 1.0) S_4)))
 (let (($x2015 (<= (+ ?x745 A_3 ?x1511) 0.0)))
 (let (($x100333 (or $x2015 (<= (+ ?x1511 A_0 ?x718 ?x2968 ?x1741 ?x5996 ?x1740) 0.0) (<= ?x63526 0.0) $x77430)))
 (let (($x46707 (<= (+ (* (- 2.0) A_0) L_0 S_0 ?x1696 L_1 ?x1741 ?x1740 ?x1697) 0.0)))
 (let ((?x815 (* (- 1.0) A_1)))
 (let ((?x1326 (* (- 2.0) L_2)))
 (let ((?x1327 (* 2.0 A_2)))
 (let (($x22034 (<= (+ ?x1327 ?x1326 L_1 ?x815 L_3 ?x954) 0.0)))
 (let (($x31005 (<= (+ ?x685 A_4 ?x755 ?x678 L_0 ?x1314 ?x1696 ?x1778 ?x1697) 0.0)))
 (let (($x3930 (<= (+ ?x685 ?x2010 ?x736 A_0) 0.0)))
 (let ((?x2353 (* (- 3.0) A_3)))
 (let ((?x5977 (* 3.0 A_1)))
 (let ((?x2951 (* (- 3.0) L_1)))
 (let ((?x2352 (* 3.0 L_3)))
 (let ((?x1654 (* 2.0 S_3)))
 (let ((?x1701 (* 2.0 L_0)))
 (let ((?x1700 (* (- 2.0) A_0)))
 (let (($x99706 (or $x1732 $x3930 (<= (+ ?x1700 ?x1701 ?x1654 ?x2352 ?x2951 ?x5977 ?x2353) 0.0) $x77457)))
 (let (($x47717 (<= (+ ?x755 L_0 S_2 L_3 ?x727 A_1 ?x954) 0.0)))
 (let (($x48790 (<= (+ ?x1700 ?x1701 ?x1654 ?x2352 ?x1741 ?x5977 ?x2353) 0.0)))
 (let (($x1997 (<= (+ ?x745 ?x2010 A_0) 0.0)))
 (let (($x2287 (<= (+ L_1 ?x815 S_2 L_3 ?x736 A_2 ?x954) 0.0)))
 (let (($x39707 (<= (+ ?x905 L_2 A_0 ?x718 L_1 ?x745 ?x815 A_3) 0.0)))
 (let (($x2296 (<= (+ ?x1325 ?x815 S_0 L_3 ?x1326 ?x755 ?x1327 ?x954) 0.0)))
 (let (($x22414 (<= (+ ?x1325 ?x815 S_0 ?x745 ?x755 ?x1327 ?x954) 0.0)))
 (let (($x242182 (or $x2015 (<= (+ ?x2968 ?x815 ?x1511 ?x1324 ?x1326 ?x1700 ?x1327) 0.0) (not (<= (+ ?x905 L_2 ?x1314 ?x1778 L_0 ?x755) 0.0)) $x77430)))
 (let (($x43282 (<= (+ ?x755 L_0 S_1 ?x727 L_2 A_1 ?x905) 0.0)))
 (let ((?x8253 (* (/ 1.0 2.0) S_3)))
 (let ((?x8210 (* (/ 1.0 2.0) A_1)))
 (let ((?x8218 (* (- (/ 3.0 2.0)) L_1)))
 (let (($x4307 (<= (+ (* (/ 4.0 3.0) A_0) (* (- (/ 1.0 3.0)) L_0) ?x4133 ?x2010 L_2 ?x727 ?x905) 0.0)))
 (let (($x237303 (or $x3363 $x4307 (<= (+ ?x8218 ?x8210 ?x8253 ?x2010 L_2 A_0 ?x905) 0.0) $x77337)))
 (let (($x9080 (<= (+ ?x1314 ?x685 A_4 ?x1778 ?x678 (* 3.0 L_2) (* (- 3.0) A_2)) 0.0)))
 (let (($x1975 (<= (+ ?x727 A_1 (* (- 1.0) S_2)) 0.0)))
 (let (($x47303 (<= (+ ?x1700 ?x1701 (* 2.0 S_1) L_3 ?x727 A_1 ?x954) 0.0)))
 (let (($x21036 (<= (+ ?x685 A_4 L_3 ?x954 ?x678 A_0 ?x718 L_1 ?x815) 0.0)))
 (let ((?x1319 (* (- 3.0) A_0)))
 (let ((?x1320 (* 3.0 L_0)))
 (let ((?x864 (* (- 1.0) A_4)))
 (let (($x9084 (<= (+ ?x1359 Q_4 ?x864 ?x1343 L_4 ?x1320 ?x1319) 0.0)))
 (let (($x3618 (<= (+ Q_4 ?x864 ?x745 A_3 L_4 ?x1325 ?x815 S_0 ?x736 ?x755 A_2) 0.0)))
 (let (($x1941 (= Q_4 0.0)))
 (let ((?x3381 (* 2.0 L_4)))
 (let ((?x3380 (* (- 2.0) A_4)))
 (let ((?x3379 (* 2.0 Q_4)))
 (let ((?x1371 (* (- 4.0) A_3)))
 (let ((?x1370 (* 4.0 L_3)))
 (let ((?x1225 (* (- 3.0) L_4)))
 (let ((?x1260 (* 3.0 A_4)))
 (let ((?x1289 (* (- 3.0) Q_4)))
 (let (($x1373 (<= (+ ?x1289 ?x1260 A_0 ?x1225 ?x718 ?x1370 ?x1371) 0.0)))
 (let (($x97587 (or $x1373 $x1941 (<= (+ ?x3379 ?x3380 ?x1705 ?x1706 ?x3381 ?x755 L_0 S_2) 0.0))))
 (let ((?x1347 (* 4.0 A_3)))
 (let ((?x1364 (* 4.0 L_1)))
 (let ((?x1351 (* (- 4.0) L_3)))
 (let ((?x1301 (* 3.0 L_4)))
 (let ((?x1300 (* (- 3.0) A_4)))
 (let ((?x1299 (* 3.0 Q_4)))
 (let ((?x34360 (+ ?x1299 ?x1300 (* (- 5.0) A_0) ?x1301 L_0 (* 4.0 S_0) ?x1351 ?x1364 ?x1347)))
 (let (($x14017 (<= (+ Q_4 ?x864 A_0 L_4 ?x718 ?x1325 ?x1705 (* (- 2.0) A_1) ?x1706) 0.0)))
 (let ((?x1365 (* (- 4.0) A_1)))
 (let ((?x1306 (* (- 3.0) L_0)))
 (let ((?x1305 (* 3.0 A_0)))
 (let (($x14054 (<= (+ ?x1299 A_4 ?x1305 ?x678 ?x1306 ?x1364 ?x1365) 0.0)))
 (let (($x9086 (<= (+ ?x727 ?x3398 ?x1949 A_1 ?x3397 ?x2352 ?x2353) 0.0)))
 (let (($x1367 (<= (+ ?x685 A_4 ?x1305 ?x678 ?x1306 ?x1364 ?x1365) 0.0)))
 (let (($x809 (not $x1367)))
 (let ((?x1490 (* (- 4.0) S_1)))
 (let ((?x29314 (* 5.0 A_0)))
 (let (($x31003 (<= (+ ?x1289 ?x1260 ?x29314 ?x1225 ?x718 ?x1490 ?x1359 ?x1370 ?x1371) 0.0)))
 (let (($x15697 (<= (+ ?x1359 ?x3398 ?x1949 A_1 ?x3397 (* (- 3.0) S_1) ?x2352 ?x1305 ?x2353) 0.0)))
 (let (($x1699 (<= (+ ?x685 A_4 A_2 ?x736 ?x678 ?x1682 (* (- 2.0) S_1) ?x1696 ?x1314 ?x1697) 0.0)))
 (let (($x95010 (or $x1699 $x1997 $x15697 (<= (+ ?x1289 ?x1260 ?x29314 ?x1225 ?x718 ?x1490 ?x1371) 0.0) $x77457)))
 (let ((?x2394 (* (- 1.0) S_0)))
 (let (($x2993 (<= (+ ?x1314 A_1 A_4 ?x678 ?x2394 L_2 L_3 A_0 ?x905 ?x954) 0.0)))
 (let ((?x1448 (* 4.0 A_2)))
 (let ((?x1449 (* (- 4.0) L_2)))
 (let (($x980 (not $x1373)))
 (let (($x234959 (or $x980 (<= (+ Q_4 ?x864 ?x1319 L_4 L_0 ?x1324 ?x1325 ?x1326 ?x1327) 0.0) $x1941 (<= (+ Q_4 ?x864 A_0 L_4 ?x718 ?x1364 ?x1449 ?x1365 ?x1448) 0.0) $x77430)))
 (let (($x63751 (<= (+ ?x905 L_2 (* (- 1.0) S_2) ?x718 S_0 ?x745 L_1 A_3) 0.0)))
 (let (($x30434 (<= (+ ?x685 A_4 ?x755 ?x678 L_0 ?x1778 ?x1697) 0.0)))
 (let (($x22175 (<= (+ ?x905 L_2 ?x1314 ?x1778 L_0 ?x755) 0.0)))
 (let (($x1743 (<= (+ Q_4 ?x864 ?x1740 ?x1741 L_4 ?x1325 (* (- 2.0) A_1)) 0.0)))
 (let (($x14193 (<= (+ ?x685 A_4 L_3 ?x954 ?x678 ?x727 A_1 ?x2010 A_0 ?x905) 0.0)))
 (let (($x236524 (or $x3363 $x14193 (<= (+ ?x3398 ?x1949 ?x1696 ?x1697 ?x3397 ?x1682 ?x718 ?x2010 ?x905) 0.0) $x77337)))
 (let (($x19783 (<= (+ ?x1314 ?x1778 (* (- 1.0) S_3) L_0 ?x755) 0.0)))
 (let (($x235644 (or $x1655 $x19783 (<= (+ A_0 ?x718 (* (- 1.0) S_3) ?x745 L_1 ?x815 A_3) 0.0) $x47823 $x77430)))
 (let (($x41781 (<= (+ ?x3379 ?x3380 ?x1705 ?x1706 ?x3381 ?x1700 L_0 S_0 ?x736 L_1 A_2) 0.0)))
 (let (($x3391 (<= (+ Q_4 ?x864 ?x745 A_3 L_4 A_2 ?x736 L_1 ?x815) 0.0)))
 (let (($x21031 (<= (+ A_4 L_3 ?x954 ?x678 A_0 ?x718 L_1 ?x815) 0.0)))
 (let (($x44333 (<= (+ ?x1682 ?x718 ?x2010 ?x1705 ?x727 (* 3.0 L_2) (* (- 3.0) A_2) ?x1706) 0.0)))
 (let (($x2341 (<= (+ ?x1314 A_1 ?x2010 ?x745 ?x1315 A_0 ?x1316 A_3) 0.0)))
 (let (($x239294 (or $x1699 $x3930 (<= (+ L_1 ?x685 A_4 ?x1778 ?x678 (* (- 3.0) A_2)) 0.0) $x31003 $x77457)))
 (let (($x3582 (<= (+ ?x685 A_4 L_3 ?x954 ?x678 ?x727 A_1 L_2 ?x905) 0.0)))
 (let (($x1708 (<= (+ Q_4 ?x864 ?x905 L_2 L_4 ?x1700 ?x1324 ?x1705 ?x1325 ?x1706) 0.0)))
 (let (($x90500 (or $x1975 (<= (+ ?x718 (* (- 2.0) S_2) S_0 ?x736 L_1 A_2) 0.0) (<= (+ A_0 ?x718 (* (- 1.0) S_2) L_1 ?x736 ?x815 A_2) 0.0) $x77430)))
 (let (($x44234 (<= (+ ?x755 L_0 S_1 L_3 ?x736 A_2 ?x954) 0.0)))
 (let (($x5981 (<= (+ (* (- (/ 3.0 2.0)) A_0) (* (/ 3.0 2.0) L_0) ?x1225 ?x5940 ?x2352 ?x1740 ?x2353) 0.0)))
 (let (($x44285 (<= (+ A_0 ?x718 (* (- 1.0) S_3) ?x1325 ?x1326 (* (- 2.0) A_1) ?x1327) 0.0)))
 (let (($x232771 (or $x1655 (<= (+ L_1 (* (- 1.0) S_3) S_0 ?x736 ?x755 A_2) 0.0) $x44285 $x77430)))
 (let (($x31001 (<= (+ ?x685 A_4 ?x755 ?x678 L_0 ?x1449 ?x1370 ?x1448 ?x1371) 0.0)))
 (let ((?x2373 (* 3.0 A_3)))
 (let ((?x2374 (* (- 3.0) L_3)))
 (let ((?x1630 (* (- 2.0) L_0)))
 (let ((?x1691 (* (- 2.0) S_4)))
 (let (($x47235 (<= (+ ?x1691 ?x1682 ?x1630 ?x2374 ?x2968 ?x5996 ?x2373) 0.0)))
 (let (($x22425 (<= (+ L_1 ?x1511 S_0 ?x745 ?x755 A_3) 0.0)))
 (let (($x230948 (or $x1975 (<= (+ ?x1682 ?x1630 (* (- 2.0) S_2) ?x745 L_1 ?x815 A_3) 0.0) (<= (+ A_0 ?x1630 (* (- 3.0) S_2) S_0 ?x745 L_1 A_3) 0.0) $x77430)))
 (let (($x50085 (<= (+ ?x1691 (* (- 4.0) A_0) (* 4.0 L_0) (* 6.0 S_1)) 0.0)))
 (let (($x104424 (or (<= (+ ?x1299 ?x1300 ?x755 ?x1301 L_0 (* 4.0 S_3)) 0.0) $x1941)))
 (let (($x15700 (<= (+ L_1 ?x685 A_4 ?x815 ?x678 ?x1741 ?x2352 ?x1740 ?x2353) 0.0)))
 (let (($x108419 (or $x1675 $x2015 (<= (+ ?x727 A_1 ?x1511 ?x1705 ?x1315 ?x1316 ?x1706) 0.0) $x77337)))
 (let (($x44212 (<= (+ ?x1511 A_0 ?x718 ?x2374 (* 3.0 L_2) (* (- 3.0) A_2) ?x2373) 0.0)))
 (let (($x229418 (or $x1975 (<= (+ A_0 ?x718 (* (- 1.0) S_2) ?x745 L_2 ?x905 A_3) 0.0) $x77337)))
 (let (($x2343 (<= (+ ?x727 A_1 ?x745 ?x1315 ?x1316 A_3) 0.0)))
 (let (($x2311 (not $x2343)))
 (let (($x236806 (or $x1655 $x19783 (<= (+ A_0 ?x718 (* (- 1.0) S_3) ?x1705 ?x1315 ?x1316 ?x1706) 0.0) $x77337)))
 (let (($x98652 (or $x1655 (<= (+ ?x755 L_0 (* (- 1.0) S_3) (* 2.0 S_1)) 0.0))))
 (let ((?x1779 (* (- 3.0) A_2)))
 (let ((?x1780 (* 3.0 L_2)))
 (let ((?x6084 (* (- 3.0) S_1)))
 (let ((?x2986 (* (- 5.0) L_1)))
 (let (($x8993 (<= (+ ?x2986 ?x685 A_4 ?x1778 ?x678 ?x6084 ?x1780 ?x1305 ?x1779) 0.0)))
 (let (($x1318 (<= (+ ?x685 A_4 ?x1305 ?x678 ?x718 (* (- 2.0) S_1) ?x1314 ?x1315 ?x1316) 0.0)))
 (let (($x1350 (<= (+ Q_4 A_4 A_0 ?x678 ?x718 ?x1315 ?x1316) 0.0)))
 (let (($x1246 (not $x1350)))
 (let (($x107106 (or $x2343 (<= (+ A_4 ?x678 ?x1370 L_0 ?x1449 ?x755 ?x1448 ?x1371) 0.0) (not $x31001) $x77337)))
 (let (($x15415 (<= (+ ?x1364 ?x3379 ?x3380 ?x815 ?x3381 (* 3.0 S_0) ?x2374 ?x1319 ?x2373) 0.0)))
 (let (($x49769 (or $x1975 (<= (+ ?x905 L_2 S_3 A_0 (* (- 1.0) S_2) ?x718) 0.0))))
 (let (($x1739 (<= (+ Q_4 ?x864 ?x1327 ?x1326 L_4 ?x755 L_0) 0.0)))
 (let (($x1323 (<= (+ Q_4 ?x864 ?x1319 L_4 ?x1320 (* 4.0 S_1)) 0.0)))
 (let (($x38615 (<= (+ Q_4 A_4 ?x905 L_2 ?x678 ?x1682 ?x1630 ?x1325 (* (- 2.0) A_1)) 0.0)))
 (let (($x23208 (<= (+ ?x685 ?x864 ?x905 L_2 L_4 ?x1705 ?x1706) 0.0)))
 (let (($x22933 (not $x23208)))
 (let (($x3385 (<= (+ Q_4 ?x864 ?x1705 ?x1706 L_4 ?x905 L_2) 0.0)))
 (let (($x3332 (<= (+ Q_4 L_1 S_0 ?x755) 0.0)))
 (let (($x77185 (= ?x678 ?x736)))
 (let (($x38600 (<= (+ ?x864 ?x745 A_3 L_4 ?x755 L_0 ?x727 A_1) 0.0)))
 (let (($x34904 (<= (+ ?x685 ?x864 A_2 ?x736 L_4 ?x1700 ?x1701 ?x1314 ?x1778) 0.0)))
 (let ((?x27835 (* (- (/ 1.0 2.0)) L_4)))
 (let ((?x27848 (* (/ 1.0 2.0) A_4)))
 (let ((?x27887 (* (- (/ 3.0 2.0)) L_2)))
 (let ((?x27868 (* (/ 1.0 2.0) A_2)))
 (let (($x27889 (<= (+ ?x27868 ?x27887 ?x27848 ?x27835 L_1 L_3 ?x954) 0.0)))
 (let (($x15143 (not (<= (+ ?x685 A_4 A_2 ?x1741 ?x678 ?x1325 ?x1696 ?x1697) 0.0))))
 (let (($x14370 (<= (+ ?x1289 ?x864 ?x1319 L_4 ?x1320 ?x1359 ?x1343) 0.0)))
 (let (($x77090 (= ?x678 ?x745)))
 (let (($x111725 (or $x1739 (not (<= (+ ?x685 ?x864 ?x755 L_4 L_0 ?x1326 ?x1327) 0.0)) $x14370 $x38600 $x77090)))
 (let (($x77215 (= ?x678 ?x727)))
 (let (($x1369 (<= (+ ?x685 A_4 A_0 ?x678 ?x718 ?x1315 ?x1316) 0.0)))
 (let (($x872 (not $x1369)))
 (let (($x1730 (<= (+ ?x685 A_4 A_2 ?x736 ?x678 ?x1696 ?x1697) 0.0)))
 (let (($x1704 (<= (+ Q_4 ?x864 A_2 ?x736 L_4 ?x1700 ?x1701 (* 2.0 S_1)) 0.0)))
 (let (($x21045 (<= (+ Q_4 ?x864 ?x745 A_3 L_4 ?x755 L_0 S_1) 0.0)))
 (let (($x97104 (or (not $x3582) (<= (+ A_4 L_3 ?x954 ?x678 ?x727 A_1 L_2 ?x905) 0.0) (<= (+ ?x685 ?x1949 ?x1696 ?x1697 ?x3397 A_0 ?x718 L_2 ?x905) 0.0) $x77337)))
 (let (($x106425 (or (<= (+ Q_4 ?x864 A_0 L_4 ?x718 ?x1342 ?x1351 ?x1344 ?x1347) 0.0) $x1941 $x9084 $x77337)))
 (let (($x14368 (<= (+ ?x685 ?x864 ?x755 L_4 L_0 ?x1326 ?x1327) 0.0)))
 (let (($x101202 (or (not $x1361) $x14368 (<= (+ ?x1344 ?x1342 A_4 ?x678 ?x1359 ?x1343 L_0 ?x755) 0.0) $x38600 $x77090)))
 (let (($x3528 (<= (+ ?x864 ?x745 A_3 L_4 L_1 ?x815 ?x736 A_2) 0.0)))
 (let (($x3565 (not $x3528)))
 (let (($x105477 (or $x1373 $x3391 $x3565 (<= (+ Q_4 ?x3380 ?x2374 ?x1706 ?x3381 ?x755 L_0 A_2) 0.0) $x77185)))
 (let (($x106899 (or $x1373 (not (<= (+ ?x864 ?x745 A_3 L_1 ?x815 A_2) 0.0)) (<= (+ Q_4 ?x864 ?x745 A_3 L_1 ?x815 A_2) 0.0) (<= (+ Q_4 ?x3380 ?x1705 ?x1706 L_4 ?x755 L_0 A_2) 0.0) $x77185)))
 (let (($x111907 (or (not (<= (+ ?x1299 ?x1300 ?x1351 ?x1347 ?x1301 L_0 ?x755) 0.0)) $x3385 $x22933 $x34904 $x77215)))
 (let (($x20848 (<= (+ ?x3398 ?x1949 ?x1696 ?x1697 ?x3397 A_0 (* (- 1.0) S_3) ?x718) 0.0)))
 (let (($x3539 (<= (+ ?x685 A_4 L_3 ?x954 ?x678 ?x727 A_1 (* (- 1.0) S_3)) 0.0)))
 (let (($x14088 (<= (+ ?x1314 ?x685 A_4 ?x1778 ?x678 ?x6084 ?x1305 ?x1779) 0.0)))
 (let (($x109064 (or $x3363 (<= (+ ?x685 A_4 ?x954 ?x678 A_1 L_2 ?x905) 0.0) $x77337)))
 (let (($x102615 (or (<= (+ ?x685 ?x1300 ?x755 ?x1301 L_0 ?x1351 ?x1347) 0.0) $x9084 (not $x14370) $x77090)))
 (let (($x30860 (<= (+ Q_4 ?x1260 A_0 ?x1225 ?x718 ?x1370 ?x1371) 0.0)))
 (let (($x15650 (<= (+ ?x727 Q_4 ?x1949 A_1 ?x3397 ?x2352 ?x2353) 0.0)))
 (let (($x9054 (not $x9086)))
 (let (($x1715 (<= (+ Q_4 A_4 A_2 ?x736 ?x678 ?x1696 ?x1697) 0.0)))
 (let (($x9072 (<= (+ ?x1314 ?x3379 A_4 ?x1778 ?x678 ?x1780 ?x1779) 0.0)))
 (let (($x20946 (<= (+ ?x685 A_4 L_3 ?x954 ?x678 A_0 ?x718 (* (- 1.0) S_2)) 0.0)))
 (let ((?x9014 (* 3.0 S_0)))
 (let ((?x16875 (* (- 4.0) A_0)))
 (let (($x20615 (not (<= (+ ?x16875 L_0 ?x9014 ?x1741 ?x2968 ?x1696 ?x1740 ?x1697) 0.0))))
 (let (($x236567 (or $x1655 (<= (+ ?x2968 ?x815 ?x1324 ?x1326 L_3 ?x1700 ?x1327 ?x954) 0.0) $x20615 $x77430 $x77457)))
 (let (($x99334 (or $x1655 $x1675 (<= (+ ?x727 A_1 (* (- 1.0) S_3) ?x745 L_2 ?x905 A_3) 0.0) $x77337)))
 (let (($x239225 (or $x1367 $x1941 (<= (+ ?x727 Q_4 ?x864 A_1 L_4 ?x1780 ?x2374 ?x1779 ?x2373) 0.0) $x77337)))
 (let ((?x1735 (* (- 2.0) A_1)))
 (let (($x9065 (<= (+ (* 5.0 L_1) Q_4 ?x864 ?x1735 L_4 ?x9014 ?x1741 ?x1319 ?x1740) 0.0)))
 (let (($x9013 (<= (+ ?x1325 Q_4 ?x864 ?x1735 L_4 (* 3.0 S_2)) 0.0)))
 (let (($x109518 (or $x1941 (<= (+ Q_4 ?x864 ?x745 A_3 L_4 L_1 ?x815 S_2) 0.0) $x9086)))
 (let (($x3383 (<= (+ ?x3379 ?x3380 ?x2374 ?x2373 ?x3381 L_1 ?x815) 0.0)))
 (let (($x14965 (<= (+ L_1 ?x685 ?x3380 ?x815 ?x3381 ?x2374 ?x2373) 0.0)))
 (let (($x14202 (not $x14965)))
 (let (($x15803 (<= (+ ?x1325 ?x3398 ?x864 ?x1735 L_4 ?x1741 ?x1740) 0.0)))
 (let (($x4299 (<= (+ (* (/ 4.0 3.0) A_0) (* (- (/ 4.0 3.0)) L_0) ?x4133 (* (- 2.0) S_2)) 0.0)))
 (let (($x99091 (or $x980 (<= (+ Q_4 ?x864 ?x755 L_4 L_0 (* 2.0 S_2)) 0.0) $x1941)))
 (let (($x1693 (<= (+ ?x685 A_4 ?x905 L_2 ?x678 ?x1682 (* (- 2.0) S_2) ?x1630) 0.0)))
 (let (($x15793 (or (<= (+ ?x1289 ?x1260 A_0 ?x1225 ?x718 (* (- 4.0) S_4)) 0.0) (<= (+ ?x685 A_4 A_2 ?x736 ?x678 ?x1691) 0.0) $x2015 (<= (+ ?x727 ?x3398 ?x1949 A_1 ?x3397 (* (- 3.0) S_4)) 0.0))))
 (let (($x109229 (or $x1941 (<= (+ L_1 ?x3379 ?x3380 ?x815 ?x3381 (* 3.0 S_3)) 0.0))))
 (let (($x10671 (or (<= (+ ?x685 A_4 A_0 ?x678 ?x718 (* (- 2.0) S_3)) 0.0) $x1655 (<= (+ ?x1314 ?x685 A_4 ?x1778 ?x678 ?x5906) 0.0))))
 (let (($x115357 (or $x1941 $x2311 (<= (+ L_1 ?x685 A_4 ?x1778 ?x678 ?x1780 ?x2374 ?x1779) 0.0) $x77457)))
 (let (($x8441 (or (<= (+ ?x685 A_4 ?x1305 ?x678 ?x1306 (* (- 4.0) S_2)) 0.0) $x1975)))
 (let (($x94052 (or $x809 $x1941 (<= (+ (* (/ 4.0 3.0) A_0) (* (- (/ 4.0 3.0)) L_0) ?x4133 ?x1325 ?x1735) 0.0))))
 (and (<= ?x727 ?x718) (<= ?x678 ?x745) (<= ?x736 ?x727) (<= ?x745 ?x736) (or (not $x1941) $x2015 $x77090) (or (<= (+ ?x685 ?x745 ?x2010 A_0) 0.0) $x77090) (or $x2728 $x77337) (or $x1975 (not $x1941) $x77090) $x94052 $x8441 (or $x2015 (<= (+ L_1 ?x815 S_3 ?x1696 ?x1326 ?x1327 ?x1697) 0.0) $x77457) (or (<= (+ Q_4 ?x864 ?x905 L_2 L_4 ?x1654) 0.0) $x1941) $x115357 (or $x1730 $x1941 $x77457) $x10671 (or $x1655 (not $x1941) $x77090) (or $x3930 $x77090) (or $x872 $x1350 $x9072 $x77337) (or $x1730 $x3363 $x77457) (or $x1941 (not $x3383) $x3528 $x77185) (or $x3363 $x77090) (or $x1941 $x3332 $x14054 $x77430) (or $x1941 $x3383 $x9013) $x109229 $x15793 (or $x1693 $x1975) (or (not $x1730) $x1715 $x9086 $x77457) (or $x980 $x1246 $x1361 $x1941 $x77090) (or $x980 $x3391 $x3565 $x14368 $x77185) (or $x1941 $x3528 $x14368 $x77090) $x99091 (or $x1655 $x3582 $x77337) (or $x1975 $x4299) (or $x3363 $x15700 $x77457) (or (<= (+ S_3 ?x727 ?x2010 L_3 A_0 ?x954) 0.0) $x77457) (or (not $x1730) $x1715 $x14965 $x77090) (or $x1941 $x14965 $x77090) (or $x2015 $x15700 $x77457) (or $x1715 $x3385 $x15700 $x77457) (or $x1367 (not $x1730) $x1715 $x15650 $x77457) (or $x9054 $x15650 $x15803 $x77185) (or $x1715 $x3385 $x15803 $x77090) (or (not $x3385) $x3383 $x14202 (not $x15650) $x77185) (or $x3383 $x14202 $x23208 $x77090) (or $x1367 $x1941 $x3383 $x9065 $x77430) (or $x1367 $x1941 $x14088 $x77337) (or $x1367 $x1941 $x8993 $x77337) $x109518 (or $x1367 $x1941 (not $x2993) $x9086 $x77430) (or $x9013 $x9054 $x15650) (or $x1367 $x9054 $x9065 $x15650 $x77430) $x239225 (or $x1941 $x15700 $x77457) (or $x2015 $x2287 $x77457) $x99334 (or $x1655 $x20615 $x22414 $x77430 $x77457) $x236567 (or $x1655 $x2296 (<= (+ ?x1327 ?x1326 ?x1325 ?x815 ?x954) 0.0) $x77430 $x77457) (or $x1655 $x2296 $x22034 $x77430 $x77457) (or $x809 $x1715 $x14054 $x30860 $x77457) (or $x980 $x1369 $x1704 $x1941) (or $x1369 $x1704 $x1941 $x3385) (or $x872 $x980 $x1323 $x1350) (or $x1941 $x23208 $x77090) (or $x1975 $x20946) (or $x1675 $x1941 $x9072 $x77337) (or $x1675 $x3363 $x8993 $x77337) (or $x1361 (not $x1730) $x1715 $x77337) (or $x1715 $x9054 $x15650 $x30860 $x77457) (or $x872 $x3385 $x14370 $x22933 $x77090) $x102615 $x109064 (or $x3363 $x3582 $x77337) (or $x1246 $x1318 $x14088 $x77337) (or $x3332 $x3385 $x22933 $x39707 $x77430) (or $x1655 $x3539 $x20848) $x111907 (or $x1369 $x3385 $x22933 $x34904 $x77215) $x106899 $x105477 (or $x1941 $x3582 $x77337) $x101202 (or $x1975 $x3582 $x77337) (or $x1975 $x2343 $x77337) (or $x2015 $x2343 $x77337) $x106425 (or $x2015 (<= (+ ?x685 A_4 ?x755 ?x678 L_0 ?x1448 ?x1371) 0.0) $x77457) (or $x2015 $x31001 $x77457) $x97104 (or $x1941 $x3332 $x21031 $x77430) (or $x1373 $x1739 $x1941 $x21045) (or $x1369 $x1730 $x1941 $x21045) (or $x872 $x1350 $x1373 $x21045) (or $x1369 $x1704 $x15143 $x27889) (or $x1369 $x1730 $x1941 $x38600 $x77215) (or $x872 $x1350 $x1373 $x38600 $x77215) (or $x1373 $x1739 $x1941 $x38600 $x77185) $x111725 (or $x14370 $x15143 $x27889 $x34904 $x38600 $x77185) (or $x3332 $x3385 $x22933 $x38615 $x77430) (or $x1361 $x1655 $x77337) (or $x980 $x1323 $x1739 $x1941) $x49769 (or $x1367 $x1941 $x15415 $x77430) (or $x1941 $x31001 $x77457) (or $x809 $x2343 $x14054 $x77337) $x107106 (or $x1941 $x2343 $x77337) (or $x3363 (<= (+ ?x685 A_4 ?x755 ?x678 L_0 ?x1448 ?x1371) 0.0) $x77457) (or $x2343 $x3363 $x77337) (or $x1655 $x2343 $x77337) (or $x1361 $x1941 $x77337) (or $x1246 $x1318 $x8993 $x77337) $x98652 $x236806 (or $x2015 $x44234 $x77457) (or $x1975 $x44234 $x77457) (or $x1975 $x2311 $x4331 $x77457) (or $x1975 (<= (+ ?x685 A_4 ?x755 ?x678 L_0 ?x1448 ?x1371) 0.0) $x77457) (or $x1975 $x31001 $x77457) $x229418 (or $x1975 (<= (+ ?x755 L_0 S_3 ?x2352 ?x1741 ?x1740 ?x2353) 0.0) $x77457) (or $x1975 $x22034 $x46707 $x77430 $x77457) (or $x2015 $x5981 $x77457) (or $x2015 (<= (+ ?x755 L_0 S_2 ?x1696 ?x1326 ?x1327 ?x1697) 0.0) $x77457) (or $x2015 (<= (+ ?x1511 (* (- (/ 1.0 2.0)) A_0) ?x5960 ?x5940) 0.0)) (or $x1732 $x2015 $x44212 $x77337) (or $x2015 (<= (+ ?x755 L_0 S_3 ?x2352 ?x1741 ?x1740 ?x2353) 0.0) $x77457) (or $x2015 $x22425 $x39707 $x77430) (or $x1675 $x2341 $x3363 $x77337) (or $x1675 $x2015 $x2296 $x77337 $x77430 $x77457) $x108419 (or $x1361 $x1975 $x77337) (or $x1655 $x15700 $x77457) (or $x1655 (<= (+ ?x685 A_4 ?x755 ?x678 L_0 ?x1448 ?x1371) 0.0) $x77457) $x104424 (or $x2015 $x22034 $x46707 $x77430 $x77457) (or $x2015 $x47717 $x77457) (or $x1732 $x2015 $x47303 $x77457) (or $x2015 $x50085 (<= (+ A_2 ?x736 ?x1511 ?x755 L_0 S_1) 0.0)) (or $x1732 $x2015 $x31005 $x77457) (or $x809 $x14054 $x39707 $x77337) (or $x1367 $x1708 $x1941 $x77430) (or $x1655 (<= (+ ?x755 L_0 S_2 ?x1315 ?x1314 ?x1778 ?x1316) 0.0) $x77337) (or $x1655 $x43282 $x77337) (or $x1732 $x2015 (<= (+ ?x1700 ?x1701 ?x1654 ?x5977 ?x2353) 0.0) $x77457) (or $x1732 $x2015 $x48790 $x77457) $x230948 (or $x2015 $x3332 $x47235 $x77430) (or (not $x3332) $x22425 $x47235 $x77430) (or $x1655 $x31001 $x77457) (or $x1975 $x4331 $x77337) (or $x1975 $x43282 $x77337) (or $x3363 $x31001 $x77457) (or $x3363 $x5981 $x77457) (or $x3363 (<= (+ ?x755 L_0 S_2 ?x1696 ?x1326 ?x1327 ?x1697) 0.0) $x77457) (or $x3363 (<= (+ ?x755 L_0 S_3 ?x2352 ?x1741 ?x1740 ?x2353) 0.0) $x77457) (or $x3363 $x22034 $x46707 $x77430 $x77457) (or $x2287 $x3363 $x77457) (or $x2296 $x3363 $x77430 $x77457) (or (<= (+ L_1 ?x815 S_3 ?x1696 ?x1326 ?x1327 ?x1697) 0.0) $x3363 $x77457) $x232771 (or $x1655 $x5981 $x77457) (or $x1655 (<= (+ ?x755 L_0 S_2 ?x1696 ?x1326 ?x1327 ?x1697) 0.0) $x77457) (or $x1655 $x44234 $x77457) (or $x1367 $x1743 $x3363 $x15697 $x77457) (or $x1367 $x1699 $x3363 $x15697 $x77457) $x90500 (or $x1708 $x1941 $x39707 $x77430) (or $x1699 $x3582 $x3930 $x77457) $x239294 (or $x2341 $x3363 $x44333 $x77337) (or $x1373 $x3618 (not $x21036) $x21031 $x77430) (or $x1373 $x1941 $x3391 $x41781 $x77430) $x235644 (or $x2015 (<= (+ L_1 ?x815 ?x1511 (* 2.0 S_2)) 0.0)) $x236524 (or $x3363 $x14193 $x41742 $x77337) (or $x1732 $x1997 (<= (+ ?x1700 ?x1701 ?x1654 ?x5977 ?x2353) 0.0) $x77457) (or $x1732 $x1975 (<= (+ ?x1700 ?x1701 ?x1654 ?x5977 ?x2353) 0.0) $x77457) (or $x1743 $x1941 $x30434 $x77457) (or $x1732 $x1941 $x31005 $x77457) (or $x1699 $x3930 $x22175 $x31003 $x77457) (or $x1732 $x1975 $x30434 $x77457) (or $x1732 $x1997 $x30434 $x77457) (or $x1655 $x30434 $x77457) (or $x1975 $x39707 $x63751 $x77430) (or $x1732 $x1975 $x47303 $x77457) (or $x1732 $x1975 $x48790 $x77457) $x234959 (or $x2993 $x3618 $x9086 $x21036 $x77430) $x95010 (or $x1699 $x3930 $x15697 $x31003 $x77457) (or $x1655 (<= (+ ?x1319 ?x1320 (* 3.0 S_2) ?x5977 ?x2353) 0.0) $x77457) (or $x1997 (<= (+ ?x1319 ?x1320 (* 3.0 S_2) ?x5977 ?x2353) 0.0) $x77457) (or $x809 $x3618 $x9086 $x14054 $x77430) (or $x3930 (<= (+ ?x755 L_0 S_2 ?x1315 ?x1314 ?x1778 ?x1316) 0.0) $x77337) (or $x3363 (<= (+ ?x755 L_0 S_2 ?x1315 ?x1314 ?x1778 ?x1316) 0.0) $x77337) (or $x2015 (<= (+ ?x755 L_0 S_2 ?x1315 ?x1314 ?x1778 ?x1316) 0.0) $x77337) (or $x1941 $x14017 (<= ?x34360 0.0) $x77430) $x97587 (or $x1941 $x3618 $x9084 $x21036 $x77430) (or $x1655 $x31005 $x77457) (or $x1655 $x47717 $x77457) (or $x1655 $x47303 $x77457) (or $x1975 (not $x9080) $x31005 $x77457) (or $x1732 $x1975 $x31005 $x77457) $x237303 (or $x2015 $x43282 $x77337) $x242182 (or $x2015 $x22414 (not $x46707) $x77430 $x77457) (or $x2015 $x2296 $x39707 $x77430 $x77457) (or $x1655 $x2287 $x77457) (or $x1732 $x1997 $x48790 $x77457) (or $x1997 $x47717 $x77457) (or $x3930 $x47717 $x77457) $x99706 (or $x1732 $x1997 $x31005 $x77457) (or $x1732 $x3930 $x31005 $x77457) (or $x1655 $x22034 $x46707 $x77430 $x77457) (or $x1361 $x2015 $x77337) $x100333 (or $x2015 $x4331 $x77337) (or $x1361 $x3363 $x77337) (or $x3363 $x4331 $x77337) (or $x3363 $x14568 $x41742 $x77337) (or $x2728 (<= (+ ?x5928 ?x5960 ?x5940 ?x2010 ?x954) 0.0) $x77457) (or $x2728 $x20856 $x77457) (or $x2728 (<= (+ ?x5928 ?x5960 ?x5940 ?x2010 L_3 ?x727 ?x954) 0.0) $x77457) (or $x1655 $x1675 $x22461 $x47823 $x77430) $x1374 (<= (+ Q_4 ?x864 L_4 S_4) 0.0) (<= (+ ?x905 L_2 S_2) 0.0) (<= (+ ?x2010 S_0) 0.0) (<= (+ L_1 ?x815 S_1) 0.0) (<= (+ L_3 ?x954 S_3) 0.0) (<= (+ S_0 L_0 ?x755) 0.0) (<= (+ (* (- 1.0) S_3) S_2) 0.0) (<= (+ ?x1691 ?x1654) 0.0) (<= (+ (* (- 2.0) S_2) (* 2.0 S_1)) 0.0))))))))))))))))))))))))))))))))))))))))))))))))))))))))))))))))))))))))))))))))))))))))))))))))))))))))))))))))))))))))))))))))))))))))))))))))))))))))))))))))))))))))))))))))))))))))))))))))))))))))))))))))))))))))))))))))))))))))))))))))))))))))))))))
(check-sat)
